webassembly/ejemplos_dzn/13/folder13_json_10.dzn
TERM = { '.', 's(2)', 'in_1', 'local_0', 'local_1', 'in_6', 'in_2', 'in_4', 'in_3', 'in_9', 'in_8', 's(1)', 's(0)', 'in_7', 'in_5', 'in_0'};
null = '.';
s = 13;
n = 15;
ndeps = 5;
max_registers_sz = 5;
NR = 2;
registers = [|'local_0', 's(1)', |'local_1', 's(2)'|];
dependencies = [|'i32.store8_0', 'i32.store_3', |'i32.store_3', 'i32.load_4', |'i32.load_4', 'call[function_index(0)]_5', |'call[function_index(0)]_5', 'call[function_index(1)]_6', |'call[function_index(1)]_6', 'i32.load8_u_9'|];
GET_ENUM = { GET1, GET2, GET3, GET4, GET5, GET6, GET7};
SET_ENUM = { SET1, SET2, SET3, SET4, SET5, SET6, SET7};
TEE_ENUM = { TEE1, TEE2, TEE3, TEE4, TEE5, TEE6, TEE7};
N = 7;
OP = { 'call[function_index(0)]_5', 'call[function_index(1)]_6', 'i32.store8_0', 'i32.store_3', 'i32.load_4', 'i32.load8_u_9', 'i32.add_0' };
in_ops = [1, 3, 2, 2, 1, 1, 2 ];
out_ops = [0, 0, 0, 0, 1, 1, 1 ];
in1 = ['s(0)', 'in_5', 'in_0', 'in_2', 'in_4', 'in_8', 's(1)' ];
in2 = ['.', 'in_6', 'in_1', 'in_3', '.', '.', 'in_9' ];
in3 = ['.', 'in_7', '.', '.', '.', '.', '.' ];
out1 = ['.', '.', '.', '.', 's(0)', 's(1)', 's(2)' ];
out2 = ['.', '.', '.', '.', '.', '.', '.' ];
out3 = ['.', '.', '.', '.', '.', '.', '.' ];
comm = [false, false, false, false, false, false, true ];
gas = [1, 1, 1, 1, 1, 1, 1 ];
sz = [1, 1, 1, 1, 1, 1, 1 ];
stor = [true, true, true, true, false, false, false ];
lb = [ 1, 1, 1, 1, 1, 1, 1 ];
ub = [ 13, 13, 13, 13, 13, 13, 13 ];
startstack = [ 'in_0', 'in_1', 'in_2', 'in_3', 'in_4', 'in_5', 'in_6', 'in_7', 'in_8', 'in_9', null, null, null, null, null ];
endstack = [ null, null, null, null, null, null, null, null, null, null, null, null, null, null, null ];
