webassembly/ejemplos_results/13/folder13_json_10.txt
value = 13;
fgas = [1, 1, 1, 1, 1, 1, 1, 1, 1, 1, 1, 1, 1];
fsize = [1, 1, 1, 1, 1, 1, 1, 1, 1, 1, 1, 1, 1];
states = 
[|   in_0, in_1, in_2, in_3, in_4, in_5, in_6, in_7, in_8, in_9, '.', '.', '.',  '.',  '.'
 |   in_0, in_1, in_2, in_3, in_4, in_5, in_6, in_7, in_8, in_9, '.', '.', '.',  '.',  '.'
 |   in_2, in_3, in_4, in_5, in_6, in_7, in_8, in_9,  '.',  '.', '.', '.', '.',  '.',  '.'
 |   in_4, in_5, in_6, in_7, in_8, in_9,  '.',  '.',  '.',  '.', '.', '.', '.', in_0,  '.'
 | 's(0)', in_5, in_6, in_7, in_8, in_9,  '.',  '.',  '.',  '.', '.', '.', '.', in_0,  '.'
 | 's(0)', in_5, in_6, in_7, in_8, in_9,  '.',  '.',  '.',  '.', '.', '.', '.',  '.',  '.'
 |   in_5, in_6, in_7, in_8, in_9,  '.',  '.',  '.',  '.',  '.', '.', '.', '.',  '.',  '.'
 |   in_8, in_9,  '.',  '.',  '.',  '.',  '.',  '.',  '.',  '.', '.', '.', '.', in_0,  '.'
 | 's(1)', in_9,  '.',  '.',  '.',  '.',  '.',  '.',  '.',  '.', '.', '.', '.', in_0,  '.'
 | 's(1)', in_9,  '.',  '.',  '.',  '.',  '.',  '.',  '.',  '.', '.', '.', '.',  '.', in_0
 | 's(2)',  '.',  '.',  '.',  '.',  '.',  '.',  '.',  '.',  '.', '.', '.', '.', in_0,  '.'
 | 's(2)',  '.',  '.',  '.',  '.',  '.',  '.',  '.',  '.',  '.', '.', '.', '.',  '.', in_0
 |    '.',  '.',  '.',  '.',  '.',  '.',  '.',  '.',  '.',  '.', '.', '.', '.', in_0,  '.'
 |    '.',  '.',  '.',  '.',  '.',  '.',  '.',  '.',  '.',  '.', '.', '.', '.',  '.',  '.'
 |];
register_states = 
[| local_0, local_1, '.', '.', '.', '.',  '.'
 | local_0, local_1, '.', '.', '.', '.', in_0
 | local_0, local_1, '.', '.', '.', '.', in_0
 | local_0, local_1, '.', '.', '.', '.', in_0
 | local_0, local_1, '.', '.', '.', '.', in_0
 |  's(0)', local_1, '.', '.', '.', '.', in_0
 |  's(0)', local_1, '.', '.', '.', '.', in_0
 |  's(0)', local_1, '.', '.', '.', '.', in_0
 |  's(0)', local_1, '.', '.', '.', '.', in_0
 |  's(1)', local_1, '.', '.', '.', '.', in_0
 |  's(1)', local_1, '.', '.', '.', '.', in_0
 |  's(1)',  's(2)', '.', '.', '.', '.', in_0
 |  's(1)',  's(2)', '.', '.', '.', '.', in_0
 |  's(1)',  's(2)', '.', '.', '.', '.',  '.'
 |];
program = [TEE(TEE7), O('i32.store8_0'), O('i32.store_3'), O('i32.load_4'), TEE(TEE1), O('call[function_index(0)]_5'), O('call[function_index(1)]_6'), O('i32.load8_u_9'), TEE(TEE1), O('i32.add_0'), TEE(TEE2), S(SET2), TEE(TEE7)];
% time elapsed: 0.30 s
----------
value = 12;
fgas = [1, 1, 1, 1, 1, 1, 1, 1, 1, 1, 1, 1, 0];
fsize = [1, 1, 1, 1, 1, 1, 1, 1, 1, 1, 1, 1, 1];
states = 
[|   in_0, in_1, in_2, in_3, in_4, in_5, in_6, in_7, in_8, in_9, '.', '.', '.',  '.', '.'
 |   in_0, in_1, in_2, in_3, in_4, in_5, in_6, in_7, in_8, in_9, '.', '.', '.', in_1, '.'
 |   in_0, in_1, in_2, in_3, in_4, in_5, in_6, in_7, in_8, in_9, '.', '.', '.',  '.', '.'
 |   in_2, in_3, in_4, in_5, in_6, in_7, in_8, in_9,  '.',  '.', '.', '.', '.',  '.', '.'
 |   in_4, in_5, in_6, in_7, in_8, in_9,  '.',  '.',  '.',  '.', '.', '.', '.', in_0, '.'
 | 's(0)', in_5, in_6, in_7, in_8, in_9,  '.',  '.',  '.',  '.', '.', '.', '.', in_0, '.'
 | 's(0)', in_5, in_6, in_7, in_8, in_9,  '.',  '.',  '.',  '.', '.', '.', '.',  '.', '.'
 |   in_5, in_6, in_7, in_8, in_9,  '.',  '.',  '.',  '.',  '.', '.', '.', '.',  '.', '.'
 |   in_8, in_9,  '.',  '.',  '.',  '.',  '.',  '.',  '.',  '.', '.', '.', '.', in_1, '.'
 | 's(1)', in_9,  '.',  '.',  '.',  '.',  '.',  '.',  '.',  '.', '.', '.', '.', in_1, '.'
 | 's(1)', in_9,  '.',  '.',  '.',  '.',  '.',  '.',  '.',  '.', '.', '.', '.',  '.', '.'
 | 's(2)',  '.',  '.',  '.',  '.',  '.',  '.',  '.',  '.',  '.', '.', '.', '.',  '.', '.'
 |    '.',  '.',  '.',  '.',  '.',  '.',  '.',  '.',  '.',  '.', '.', '.', '.',  '.', '.'
 |    '.',  '.',  '.',  '.',  '.',  '.',  '.',  '.',  '.',  '.', '.', '.', '.',  '.', '.'
 |];
register_states = 
[| local_0, local_1, '.', '.', '.', '.', '.'
 |    in_0, local_1, '.', '.', '.', '.', '.'
 |    in_0,    in_0, '.', '.', '.', '.', '.'
 |    in_0,    in_0, '.', '.', '.', '.', '.'
 |    in_0,    in_0, '.', '.', '.', '.', '.'
 |    in_0,    in_0, '.', '.', '.', '.', '.'
 |    in_0,  's(0)', '.', '.', '.', '.', '.'
 |    in_0,  's(0)', '.', '.', '.', '.', '.'
 |    in_0,  's(0)', '.', '.', '.', '.', '.'
 |    in_0,  's(0)', '.', '.', '.', '.', '.'
 |  's(1)',  's(0)', '.', '.', '.', '.', '.'
 |  's(1)',  's(0)', '.', '.', '.', '.', '.'
 |  's(1)',  's(2)', '.', '.', '.', '.', '.'
 |  's(1)',  's(2)', '.', '.', '.', '.', '.'
 |];
program = [TEE(TEE1), TEE(TEE2), O('i32.store8_0'), O('i32.store_3'), O('i32.load_4'), TEE(TEE2), O('call[function_index(0)]_5'), O('call[function_index(1)]_6'), O('i32.load8_u_9'), TEE(TEE1), O('i32.add_0'), S(SET2), NOP];
% time elapsed: 0.38 s
----------
value = 11;
fgas = [1, 1, 1, 1, 1, 1, 1, 1, 1, 1, 1, 0, 0];
fsize = [1, 1, 1, 1, 1, 1, 1, 1, 1, 1, 1, 1, 1];
states = 
[|   in_0, in_1, in_2, in_3, in_4, in_5, in_6, in_7, in_8, in_9, '.', '.', '.',  '.',  '.'
 |   in_2, in_3, in_4, in_5, in_6, in_7, in_8, in_9,  '.',  '.', '.', '.', '.',  '.',  '.'
 |   in_4, in_5, in_6, in_7, in_8, in_9,  '.',  '.',  '.',  '.', '.', '.', '.',  '.', in_1
 | 's(0)', in_5, in_6, in_7, in_8, in_9,  '.',  '.',  '.',  '.', '.', '.', '.',  '.', in_1
 |   in_5, in_6, in_7, in_8, in_9,  '.',  '.',  '.',  '.',  '.', '.', '.', '.', in_1,  '.'
 |   in_5, in_6, in_7, in_8, in_9,  '.',  '.',  '.',  '.',  '.', '.', '.', '.',  '.',  '.'
 |   in_8, in_9,  '.',  '.',  '.',  '.',  '.',  '.',  '.',  '.', '.', '.', '.', in_1,  '.'
 |   in_8, in_9,  '.',  '.',  '.',  '.',  '.',  '.',  '.',  '.', '.', '.', '.',  '.',  '.'
 | 's(1)', in_9,  '.',  '.',  '.',  '.',  '.',  '.',  '.',  '.', '.', '.', '.',  '.',  '.'
 | 's(1)', in_9,  '.',  '.',  '.',  '.',  '.',  '.',  '.',  '.', '.', '.', '.',  '.',  '.'
 | 's(2)',  '.',  '.',  '.',  '.',  '.',  '.',  '.',  '.',  '.', '.', '.', '.',  '.',  '.'
 |    '.',  '.',  '.',  '.',  '.',  '.',  '.',  '.',  '.',  '.', '.', '.', '.',  '.',  '.'
 |    '.',  '.',  '.',  '.',  '.',  '.',  '.',  '.',  '.',  '.', '.', '.', '.',  '.',  '.'
 |    '.',  '.',  '.',  '.',  '.',  '.',  '.',  '.',  '.',  '.', '.', '.', '.',  '.',  '.'
 |];
register_states = 
[| local_0, local_1, '.', '.', '.', '.', '.'
 | local_0, local_1, '.', '.', '.', '.', '.'
 | local_0, local_1, '.', '.', '.', '.', '.'
 | local_0, local_1, '.', '.', '.', '.', '.'
 | local_0, local_1, '.', '.', '.', '.', '.'
 |    in_5, local_1, '.', '.', '.', '.', '.'
 |    in_5, local_1, '.', '.', '.', '.', '.'
 |    in_8, local_1, '.', '.', '.', '.', '.'
 |    in_8, local_1, '.', '.', '.', '.', '.'
 |  's(1)', local_1, '.', '.', '.', '.', '.'
 |  's(1)', local_1, '.', '.', '.', '.', '.'
 |  's(1)',  's(2)', '.', '.', '.', '.', '.'
 |  's(1)',  's(2)', '.', '.', '.', '.', '.'
 |  's(1)',  's(2)', '.', '.', '.', '.', '.'
 |];
program = [O('i32.store8_0'), O('i32.store_3'), O('i32.load_4'), O('call[function_index(0)]_5'), TEE(TEE1), O('call[function_index(1)]_6'), TEE(TEE1), O('i32.load8_u_9'), TEE(TEE1), O('i32.add_0'), S(SET2), NOP, NOP];
% time elapsed: 0.40 s
----------
value = 10;
fgas = [1, 1, 1, 1, 1, 1, 1, 1, 1, 1, 0, 0, 0];
fsize = [1, 1, 1, 1, 1, 1, 1, 1, 1, 1, 1, 1, 1];
states = 
[|   in_0, in_1, in_2, in_3, in_4, in_5, in_6, in_7, in_8, in_9, '.', '.', '.',  '.',  '.'
 |   in_2, in_3, in_4, in_5, in_6, in_7, in_8, in_9,  '.',  '.', '.', '.', '.',  '.',  '.'
 |   in_4, in_5, in_6, in_7, in_8, in_9,  '.',  '.',  '.',  '.', '.', '.', '.',  '.', in_2
 | 's(0)', in_5, in_6, in_7, in_8, in_9,  '.',  '.',  '.',  '.', '.', '.', '.',  '.', in_2
 |   in_5, in_6, in_7, in_8, in_9,  '.',  '.',  '.',  '.',  '.', '.', '.', '.', in_2,  '.'
 |   in_5, in_6, in_7, in_8, in_9,  '.',  '.',  '.',  '.',  '.', '.', '.', '.',  '.',  '.'
 |   in_8, in_9,  '.',  '.',  '.',  '.',  '.',  '.',  '.',  '.', '.', '.', '.', in_5,  '.'
 | 's(1)', in_9,  '.',  '.',  '.',  '.',  '.',  '.',  '.',  '.', '.', '.', '.', in_5,  '.'
 | 's(1)', in_9,  '.',  '.',  '.',  '.',  '.',  '.',  '.',  '.', '.', '.', '.',  '.',  '.'
 | 's(2)',  '.',  '.',  '.',  '.',  '.',  '.',  '.',  '.',  '.', '.', '.', '.',  '.',  '.'
 |    '.',  '.',  '.',  '.',  '.',  '.',  '.',  '.',  '.',  '.', '.', '.', '.',  '.',  '.'
 |    '.',  '.',  '.',  '.',  '.',  '.',  '.',  '.',  '.',  '.', '.', '.', '.',  '.',  '.'
 |    '.',  '.',  '.',  '.',  '.',  '.',  '.',  '.',  '.',  '.', '.', '.', '.',  '.',  '.'
 |    '.',  '.',  '.',  '.',  '.',  '.',  '.',  '.',  '.',  '.', '.', '.', '.',  '.',  '.'
 |];
register_states = 
[| local_0, local_1, '.', '.', '.', '.', '.'
 | local_0, local_1, '.', '.', '.', '.', '.'
 | local_0, local_1, '.', '.', '.', '.', '.'
 | local_0, local_1, '.', '.', '.', '.', '.'
 | local_0, local_1, '.', '.', '.', '.', '.'
 |    in_5, local_1, '.', '.', '.', '.', '.'
 |    in_5, local_1, '.', '.', '.', '.', '.'
 |    in_5, local_1, '.', '.', '.', '.', '.'
 |  's(1)', local_1, '.', '.', '.', '.', '.'
 |  's(1)', local_1, '.', '.', '.', '.', '.'
 |  's(1)',  's(2)', '.', '.', '.', '.', '.'
 |  's(1)',  's(2)', '.', '.', '.', '.', '.'
 |  's(1)',  's(2)', '.', '.', '.', '.', '.'
 |  's(1)',  's(2)', '.', '.', '.', '.', '.'
 |];
program = [O('i32.store8_0'), O('i32.store_3'), O('i32.load_4'), O('call[function_index(0)]_5'), TEE(TEE1), O('call[function_index(1)]_6'), O('i32.load8_u_9'), TEE(TEE1), O('i32.add_0'), S(SET2), NOP, NOP, NOP];
% time elapsed: 0.42 s
----------
value = 9;
fgas = [1, 1, 1, 1, 1, 1, 1, 1, 1, 0, 0, 0, 0];
fsize = [1, 1, 1, 1, 1, 1, 1, 1, 1, 1, 1, 1, 1];
states = 
[|   in_0, in_1, in_2, in_3, in_4, in_5, in_6, in_7, in_8, in_9, '.', '.', '.',  '.', '.'
 |   in_2, in_3, in_4, in_5, in_6, in_7, in_8, in_9,  '.',  '.', '.', '.', '.',  '.', '.'
 |   in_4, in_5, in_6, in_7, in_8, in_9,  '.',  '.',  '.',  '.', '.', '.', '.',  '.', '.'
 | 's(0)', in_5, in_6, in_7, in_8, in_9,  '.',  '.',  '.',  '.', '.', '.', '.',  '.', '.'
 |   in_5, in_6, in_7, in_8, in_9,  '.',  '.',  '.',  '.',  '.', '.', '.', '.',  '.', '.'
 |   in_8, in_9,  '.',  '.',  '.',  '.',  '.',  '.',  '.',  '.', '.', '.', '.', in_1, '.'
 | 's(1)', in_9,  '.',  '.',  '.',  '.',  '.',  '.',  '.',  '.', '.', '.', '.', in_1, '.'
 | 's(1)', in_9,  '.',  '.',  '.',  '.',  '.',  '.',  '.',  '.', '.', '.', '.',  '.', '.'
 | 's(2)',  '.',  '.',  '.',  '.',  '.',  '.',  '.',  '.',  '.', '.', '.', '.',  '.', '.'
 |    '.',  '.',  '.',  '.',  '.',  '.',  '.',  '.',  '.',  '.', '.', '.', '.',  '.', '.'
 |    '.',  '.',  '.',  '.',  '.',  '.',  '.',  '.',  '.',  '.', '.', '.', '.',  '.', '.'
 |    '.',  '.',  '.',  '.',  '.',  '.',  '.',  '.',  '.',  '.', '.', '.', '.',  '.', '.'
 |    '.',  '.',  '.',  '.',  '.',  '.',  '.',  '.',  '.',  '.', '.', '.', '.',  '.', '.'
 |    '.',  '.',  '.',  '.',  '.',  '.',  '.',  '.',  '.',  '.', '.', '.', '.',  '.', '.'
 |];
register_states = 
[| local_0, local_1, '.', '.', '.', '.', '.'
 | local_0, local_1, '.', '.', '.', '.', '.'
 | local_0, local_1, '.', '.', '.', '.', '.'
 | local_0, local_1, '.', '.', '.', '.', '.'
 | local_0, local_1, '.', '.', '.', '.', '.'
 | local_0, local_1, '.', '.', '.', '.', '.'
 | local_0, local_1, '.', '.', '.', '.', '.'
 |  's(1)', local_1, '.', '.', '.', '.', '.'
 |  's(1)', local_1, '.', '.', '.', '.', '.'
 |  's(1)',  's(2)', '.', '.', '.', '.', '.'
 |  's(1)',  's(2)', '.', '.', '.', '.', '.'
 |  's(1)',  's(2)', '.', '.', '.', '.', '.'
 |  's(1)',  's(2)', '.', '.', '.', '.', '.'
 |  's(1)',  's(2)', '.', '.', '.', '.', '.'
 |];
program = [O('i32.store8_0'), O('i32.store_3'), O('i32.load_4'), O('call[function_index(0)]_5'), O('call[function_index(1)]_6'), O('i32.load8_u_9'), TEE(TEE1), O('i32.add_0'), S(SET2), NOP, NOP, NOP, NOP];
% time elapsed: 0.42 s
----------
==========
% time elapsed: 0.42 s
% [value > 8]
